\ENCODING=ISO-8859-1
\Problem name: ILOG.CPLEX

Minimize
 obj: 1440 x1 + 1440 x1 + 1440 x3 + 1440 x5 + 1440 x7 + 1440 x9 + 1440 x11
      + 1440 x13 + 1440 x15 + 1440 x17 + 1440 x19 + 1440 x21 + 1440 x23
      + 1440 x25 + 1440 x27 + 1440 x29 + 1440 x31 + 1440 x33 + 1440 x35
      + 1440 x37 + 1440 x39 + 1440 x41 + 1440 x43 + 1440 x45 + 1440 x47
      + 1440 x49 + 1440 x51 + 1440 x53 + 1440 x55 + 1440 x57 + 1440 x59
      + 1440 x61 + 1440 x63 + 1440 x65 + 1440 x67 + 1440 x69 + 1440 x71
      + 1440 x73 + 1440 x75 + 1440 x77 + 1440 x79 + 1440 x81 + 1440 x83
      + 1440 x85 + 1440 x87 + 1440 x89 + 1440 x91 + 1440 x93 + 1440 x95
      + 1440 x97 + 1440 x99 + 1440 x101 + 1440 x103 + 1440 x105 + 1440 x107
      + 1440 x109 + 1440 x111 + 1440 x112 + 1440 x114 + 1440 x116 + 1440 x118
      + 1440 x120 + 1440 x122 + 1440 x124 + 1440 x126 + 1440 x128 + 1440 x130
      + 1440 x131 + 1440 x133 + 1440 x135 + 1440 x137 + 1440 x139 + 1440 x141
      + 1440 x143 + 1440 x145 + 1440 x147 + 1440 x149 + 1440 x150 + 1440 x152
      + 1440 x154 + 1440 x156 + 1440 x158 + 1440 x160 + 1440 x162 + 1440 x164
      + 1440 x166 + 1440 x167 + 1440 x169 + 1440 x171 + 1440 x173 + 1440 x175
      + 1440 x177 + 1440 x179 + 1440 x181 + 1440 x183 + 1440 x185 + 1440 x186
      + 1440 x188 + 1440 x190 + 1440 x192 + 1440 x194 + 1440 x196 + 1440 x198
      + 1440 x200 + 1440 x202 + 1440 x204 + 1440 x205 + 1440 x207 + 1440 x209
      + 1440 x211 + 1440 x213 + 1440 x215 + 1440 x217 + 1440 x218 + 1440 x220
      + 1440 x222 + 1440 x224 + 1440 x226 + 1440 x228 + 1440 x230 + 1440 x232
      + 1440 x234 + 1440 x236 + 1440 x237 + 1440 x239 + 1440 x241 + 1440 x243
      + 1440 x245 + 1440 x247 + 1440 x249 + 1440 x251 + 1440 x253 + 1440 x255
      + 1440 x256 + 1440 x258 + 1440 x260 + 1440 x262 + 1440 x264 + 1440 x266
      + 1440 x268 + 1440 x270 + 1440 x272 + 1440 x274 + 1440 x275 + 1440 x277
      + 1440 x279 + 1440 x281 + 1440 x283 + 1440 x285 + 1440 x287 + 1440 x289
      + 1440 x291 + 1440 x293 + 1440 x294 + 1440 x296 + 1440 x298 + 1440 x300
      + 1440 x302 + 1440 x304 + 1440 x306 + 1440 x308 + 1440 x310 + 1440 x312
      + 1440 x313 + 1440 x315 + 1440 x317 + 1440 x319 + 1440 x321 + 1440 x323
      + 1440 x325 + 1440 x327 + 1440 x329 + 1440 x331 + 1440 x332 + 1440 x334
      + 1440 x336 + 1440 x338 + 1440 x340 + 1440 x342 + 1440 x344 + 1440 x346
      + 1440 x348 + 1440 x350 + 1440 x351 + 1440 x353 + 1440 x355 + 1440 x357
      + 1440 x359 + 1440 x361 + 1440 x363 + 1440 x365 + 1440 x367 + 1440 x369
      + 1440 x370 + 1440 x372 + 1440 x374 + 1440 x376 + 1440 x378 + 1440 x380
      + 1440 x382 + 1440 x384 + 1440 x386 + 1440 x388 + 1440 x389 + 1440 x391
      + 1440 x393 + 1440 x395 + 1440 x397 + 1440 x399 + 1440 x401 + 1440 x403
      + 1440 x405 + 1440 x407 + 1440 x408 + 1440 x410 + 1440 x412 + 1440 x414
      + 1440 x416 + 1440 x418 + 1440 x420 + 1440 x422 + 1440 x424 + 1440 x426
      + 1440 x427 + 1440 x429 + 1440 x431 + 1440 x433 + 1440 x435 + 1440 x437
      + 1440 x439 + 1440 x441 + 1440 x443 + 1440 x445 + 1440 x446 + 1440 x448
      + 1440 x450 + 1440 x452 + 1440 x454 + 1440 x456 + 1440 x458 + 1440 x460
      + 1440 x462 + 1440 x464 + 1440 x465 + 1440 x467 + 1440 x469 + 1440 x471
      + 1440 x473 + 1440 x475 + 1440 x477 + 1440 x479 + 1440 x481 + 1440 x483
      + 1440 x484 + 1440 x486 + 1440 x488 + 1440 x490 + 1440 x492 + 1440 x494
      + 1440 x496 + 1440 x498 + 1440 x500 + 1440 x502 + 1440 x503 + 1440 x505
      + 1440 x507 + 1440 x509 + 1440 x511 + 1440 x513 + 1440 x515 + 1440 x517
      + 1440 x519 + 1440 x521 + 1440 x522 + 1440 x524 + 1440 x526 + 1440 x528
      + 1440 x530 + 1440 x532 + 1440 x533 + 1440 x535 + 1440 x537 + 1440 x539
      + 1440 x541 + 1440 x542 + 1440 x544 + 1440 x546 + 1440 x548 + 1440 x550
      + 1440 x551 + 1440 x553 + 1440 x555 + 1440 x557 + 1440 x558 + 1440 x560
      + 1440 x562 + 1440 x564 + 1440 x566 + 1440 x568 + 1440 x570 + 1440 x571
      + 1440 x572 + 1440 x574 + 1440 x576 + 1440 x577 + 1440 x579 + 1440 x581
      + 1440 x583 + 1440 x585 + 1440 x587 + 1440 x588 + 1440 x590 + 1440 x591
Subject To
 c1:   x53 + x137 + x139 + x315 >= 1
 c3:   x107 + x122 + x186 >= 1
 c5:   x69 + x310 + x382 >= 1
 c7:   x91 + x120 + x192 + x357 + x361 + x448 >= 1
 c9:   x97 + x365 >= 1
 c11:  x69 + x382 >= 1
 c13:  x41 + x143 + x149 + x205 + x215 + x323 + x450 >= 1
 c15:  x57 + x164 + x205 + x215 >= 1
 c17:  x39 + x122 >= 1
 c19:  x41 + x122 + x450 >= 1
 c21:  x57 + x152 + x154 + x186 + x192 + x224 + x228 + x321 >= 1
 c23:  x39 + x186 + x192 + x361 >= 1
 c24:  x77 + x120 + x357 + x361 + x363 + x365 + x367 + x541 >= 1
 c25:  x37 + x120 + x160 + x260 + x342 >= 1
 c26:  x37 + x190 + x338 + x340 + x342 >= 1
 c27:  x17 + x139 + x177 + x209 + x380 + x551 >= 1
 c28:  x83 + x135 + x237 + x370 + x372 >= 1
 c29:  x91 + x137 + x145 + x241 + x262 + x382 >= 1
 c30:  x41 + x175 + x283 + x296 >= 1
 c31:  x43 + x122 >= 1
 c32:  x39 + x149 + x150 + x152 + x154 + x156 + x158 + x450 >= 1
 c33:  x41 + x175 + x275 + x283 + x296 >= 1
 c34:  x43 + x166 + x171 + x173 + x228 + x323 + x408 + x410 >= 1
 c35:  x95 + x149 + x152 + x154 + x186 + x205 + x281 >= 1
 c36:  x15 + x185 + x196 + x338 + x346 >= 1
 c37:  x73 + x156 + x321 + x323 >= 1
 c38:  x73 + x188 + x194 + x285 + x293 + x340 >= 1
 c39:  x39 + x143 + x173 + x224 + x228 + x357 + x361 + x367 + x450 >= 1
 c40:  x33 + x177 + x190 + x391 + x393 + x443 + x550 >= 1
 c41:  x15 + x338 + x340 + x342 + x346 >= 1
 c42:  x55 + x131 + x237 + x239 + x241 + x351 + x456 >= 1
 c43:  x37 + x196 + x285 >= 1
 c44:  x33 + x177 + x262 + x272 + x456 + x528 >= 1
 c45:  x63 + x135 + x147 + x272 + x300 + x370 >= 1
 c46:  x17 + x237 + x239 + x241 + x530 >= 1
 c47:  x103 + x133 + x175 + x183 + x255 + x258 + x528 + x530 >= 1
 c48:  x13 + x133 + x135 + x147 + x258 + x420 >= 1
 c49:  x43 + x156 + x298 + x544 + x574 >= 1
 c50:  x63 + x175 + x183 + x370 + x407 >= 1
 c51:  x5 + x150 + x166 + x169 + x171 + x173 + x312 + x313 + x327 + x329 + x498
       + x581 >= 1
 c52:  x43 + x149 + x150 + x154 + x274 + x275 + x281 + x283 + x323 + x376
       + x378 + x408 + x410 + x412 + x558 >= 1
 c53:  x59 + x128 + x185 + x194 + x196 + x253 + x279 + x319 + x346 + x484
       + x492 + x522 >= 1
 c54:  x59 + x156 + x166 + x171 + x414 + x574 >= 1
 c55:  x21 + x188 + x500 + x521 + x558 + x570 >= 1
 c56:  x19 + x152 + x158 + x312 + x313 + x317 + x319 + x321 + x367 >= 1
 c57:  x29 + x131 + x141 + x239 + x350 + x351 + x443 + x555 >= 1
 c58:  x99 + x128 + x185 + x188 + x194 + x196 + x293 + x346 + x492 >= 1
 c59:  x33 + x131 + x351 + x456 + x555 >= 1
 c60:  x47 + x133 + x300 + x378 >= 1
 c61:  x19 + x200 + x236 + x376 + x454 >= 1
 c62:  x47 + x133 + x150 + x171 + x274 + x410 + x418 + x574 + x581 >= 1
 c63:  x51 + x169 + x220 + x312 + x317 + x325 + x327 + x433 + x435 + x460
       + x574 + x577 + x579 + x581 >= 1
 c64:  x51 + x253 + x279 + x312 + x313 + x317 + x319 + x325 + x327 + x329 >= 1
 c65:  x31 + x128 + x294 + x484 + x498 >= 1
 c66:  x31 + x128 + x294 + x399 + x484 + x498 >= 1
 c67:  x29 + x245 + x304 + x350 >= 1
 c68:  x21 + x293 + x304 + x306 + x492 >= 1
 c69:  x65 + x116 + x118 + x232 + x256 + x467 + x564 >= 1
 c70:  x65 + x131 + x141 + x245 + x247 + x443 + x521 + x522 + x524 + x526
       + x533 + x542 + x544 + x550 + x555 >= 1
 c71:  x7 + x234 + x249 + x251 + x332 + x336 + x445 + x496 + x524 >= 1
 c72:  x29 + x222 + x234 + x255 + x256 + x268 >= 1
 c73:  x79 + x116 + x300 + x336 + x467 + x539 >= 1
 c74:  x51 + x204 + x386 + x422 + x579 >= 1
 c75:  x79 + x162 + x217 + x218 + x220 + x230 + x401 + x424 + x488 + x519
       + x577 >= 1
 c76:  x25 + x162 + x200 + x236 + x277 + x279 + x325 + x566 >= 1
 c77:  x51 + x218 + x294 + x441 >= 1
 c78:  x105 + x112 + x126 + x266 + x388 + x532 >= 1
 c79:  x9 + x111 + x114 + x124 + x331 + x334 + x374 + x576 >= 1
 c80:  x89 + x245 + x304 + x350 + x355 + x374 >= 1
 c81:  x35 + x116 + x118 + x243 + x264 + x336 + x344 + x464 + x465 + x473 >= 1
 c82:  x81 + x114 + x118 + x124 + x256 >= 1
 c83:  x23 + x167 + x332 + x471 + x494 + x496 >= 1
 c84:  x35 + x232 + x332 + x336 + x344 + x445 >= 1
 c85:  x45 + x130 + x431 + x502 + x503 + x505 + x507 + x511 + x513 >= 1
 c86:  x45 + x204 + x211 + x213 + x236 + x249 + x435 + x494 + x496 + x503
       + x511 + x513 + x553 + x564 + x571 + x572 + x579 + x583 >= 1
 c87:  x81 + x198 + x211 + x217 + x226 + x439 >= 1
 c88:  x25 + x217 + x218 + x220 + x226 + x230 + x277 + x403 + x422 + x424
       + x433 + x439 + x441 + x446 + x488 + x515 + x519 + x577 >= 1
 c89:  x93 + x112 + x126 + x422 + x483 + x486 + x488 >= 1
 c90:  x49 + x112 + x126 + x483 + x486 + x509 + x532 + x537 >= 1
 c91:  x49 >= 1
 c92:  x71 + x111 + x266 + x270 + x331 + x490 + x576 >= 1
 c93:  x87 + x111 + x114 + x388 + x490 >= 1
 c94:  x61 + x114 + x124 + x334 + x374 >= 1
 c95:  x67 + x302 + x334 + x553 + x590 >= 1
 c96:  x67 + x118 + x243 + x359 + x465 >= 1
 c97:  x71 + x243 + x264 + x344 + x359 + x585 + x587 >= 1
 c98:  x45 + x198 + x217 + x439 + x446 + x583 >= 1
 c99:  x35 + x167 + x181 + x464 + x465 + x471 + x477 >= 1
 c100: x49 + x226 + x483 + x486 + x488 + x515 >= 1
 c101: x23 + x130 + x473 + x507 + x513 >= 1
 c102: x85 + x111 + x112 + x388 + x490 + x532 + x535 >= 1
 c103: x45 + x179 + x431 + x446 + x475 + x583 >= 1
 c104: x87 + x264 + x331 + x359 >= 1
 c105: x93 + x130 + x243 + x464 + x465 + x471 + x473 >= 1
 c106: x49 + x427 + x546 + x548 >= 1
 c107: x109 + x167 + x179 + x181 + x431 + x587 + x590 >= 1
 c108: x85 + x469 + x481 + x517 >= 1
 c109: x3 + x372 >= 1
 c110: x37 + x342 + x369 + x380 + x384 >= 1
 c111: x15 + x107 + x363 + x448 + x541 >= 1
 c112: x11 + x137 + x139 + x145 + x452 >= 1
 c113: x11 + x190 + x315 + x384 + x452 >= 1
 c114: x3 + x97 + x372 >= 1
 c115: x13 + x135 + x369 + x370 + x372 >= 1
 c116: x13 + x164 + x296 + x308 + x310 >= 1
 c117: x5 + x120 + x185 + x192 + x541 >= 1
 c118: x15 + x260 >= 1
 c119: x11 + x103 + x188 + x194 >= 1
 c120: x17 + x139 + x285 + x315 + x551 >= 1
 c121: x3 + x456 >= 1
 c122: x5 + x173 + x285 + x327 + x329 + x340 + x484 + x498 + x500 >= 1
 c123: x13 + x95 + x205 + x258 + x275 + x281 + x420 >= 1
 c125: x21 + x338 + x393 + x443 + x550 >= 1
 c127: x5 + x224 + x313 + x319 + x321 + x329 + x367 + x541 >= 1
 c129: x29 + x202 + x237 + x239 >= 1
 c131: x17 + x202 + x262 + x389 + x555 >= 1
 c133: x7 + x258 + x298 + x376 + x378 >= 1
 c135: x19 + x317 + x407 + x408 + x410 + x412 + x414 + x416 + x418 + x542 >= 1
 c137: x19 + x166 + x169 + x408 + x416 + x454 >= 1
 c139: x33 + x99 + x245 + x247 + x293 + x304 + x306 + x355 + x550 + x557 + x560
       >= 1
 c141: x9 + x350 + x351 + x353 + x355 >= 1
 c143: x27 + x255 + x256 + x268 + x467 >= 1
 c145: x27 + x105 + x298 + x386 + x426 + x445 + x458 >= 1
 c147: x7 + x274 + x298 + x445 >= 1
 c149: x7 + x101 + x169 + x220 + x397 + x433 + x435 + x496 + x502 + x503 + x560
       + x570 >= 1
 c151: x21 + x218 + x441 + x492 + x509 + x519 >= 1
 c153: x1 + x247 + x306 + x460 + x462 >= 1
 c155: x1 + x247 + x306 + x355 >= 1
 c157: x9 + x291 + x334 + x576 >= 1
 c159: x9 + x222 + x399 + x405 + x526 + x571 + x576 >= 1
 c161: x1 + x116 + x222 + x405 + x585 >= 1
 c162: x25 + x236 + x325 + x426 + x433 + x435 + x437 >= 1
 c163: x23 + x251 + x302 + x502 + x505 + x507 >= 1
 c164: x31 + x277 + x289 + x439 + x441 + x568 >= 1
 c165: x1 + x287 + x289 + x388 + x401 >= 1
 c166: x1 + x490 >= 1
 c167: x1 + x264 + x464 + x469 + x473 + x475 + x477 + x479 >= 1
 c168: x1 + x222 + x359 + x585 >= 1
 c169: x35 + x130 + x431 + x546 + x588 + x591 >= 1
 c170: x25 + x204 + x207 + x213 + x446 + x515 + x583 >= 1
 c171: x23 + x204 + x207 + x427 + x429 + x507 + x513 + x517 >= 1
 c172: x1 + x109 + x331 + x572 >= 1
 c173: x75 + x226 + x429 + x483 + x515 + x588 + x591 >= 1
 c174: x83 + x224 + x228 + x357 >= 1
 c175: x3 >= 1
 c176: x11 + x137 + x177 + x241 + x262 + x382 + x452 >= 1
 c177: x55 + x190 + x260 + x452 + x551 >= 1
 c178: x27 + x274 + x275 + x281 + x283 + x376 + x378 + x420 >= 1
 c179: x27 + x255 + x300 + x389 + x391 + x395 + x420 + x467 >= 1
 c180: x89 + x277 + x279 + x291 + x395 + x416 + x418 + x424 + x462 >= 1
 c181: x47 + x416 + x418 + x424 + x437 + x454 + x494 + x505 + x511 + x557
       + x562 + x568 + x577 + x579 + x581 >= 1
 c182: x47 + x353 + x397 + x403 + x454 + x458 + x494 + x502 + x503 + x505
       + x511 + x533 + x537 + x539 >= 1
 c183: x75 + x167 + x332 + x344 + x348 + x471 + x481 + x548 + x585 >= 1
 c184: x61 + x124 + x270 + x374 + x532 + x535 >= 1
 c185: x77 + x296 + x308 >= 1
 c186: x31 + x126 + x422 + x509 + x519 >= 1
 c187: x101 + x287 + x294 + x348 + x479 + x486 + x509 + x562 + x566 >= 1
 c188: x53 + x160 + x209 + x260 + x315 + x551 >= 1
Bounds
 0 <= x1 <= 1
 0 <= x1 <= 1
 0 <= x3 <= 1
 0 <= x5 <= 1
 0 <= x7 <= 1
 0 <= x9 <= 1
 0 <= x11 <= 1
 0 <= x13 <= 1
 0 <= x15 <= 1
 0 <= x17 <= 1
 0 <= x19 <= 1
 0 <= x21 <= 1
 0 <= x23 <= 1
 0 <= x25 <= 1
 0 <= x27 <= 1
 0 <= x29 <= 1
 0 <= x31 <= 1
 0 <= x33 <= 1
 0 <= x35 <= 1
 0 <= x37 <= 1
 0 <= x39 <= 1
 0 <= x41 <= 1
 0 <= x43 <= 1
 0 <= x45 <= 1
 0 <= x47 <= 1
 0 <= x49 <= 1
 0 <= x51 <= 1
 0 <= x53 <= 1
 0 <= x55 <= 1
 0 <= x57 <= 1
 0 <= x59 <= 1
 0 <= x61 <= 1
 0 <= x63 <= 1
 0 <= x65 <= 1
 0 <= x67 <= 1
 0 <= x69 <= 1
 0 <= x71 <= 1
 0 <= x73 <= 1
 0 <= x75 <= 1
 0 <= x77 <= 1
 0 <= x79 <= 1
 0 <= x81 <= 1
 0 <= x83 <= 1
 0 <= x85 <= 1
 0 <= x87 <= 1
 0 <= x89 <= 1
 0 <= x91 <= 1
 0 <= x93 <= 1
 0 <= x95 <= 1
 0 <= x97 <= 1
 0 <= x99 <= 1
 0 <= x101 <= 1
 0 <= x103 <= 1
 0 <= x105 <= 1
 0 <= x107 <= 1
 0 <= x109 <= 1
 0 <= x111 <= 1
 0 <= x112 <= 1
 0 <= x114 <= 1
 0 <= x116 <= 1
 0 <= x118 <= 1
 0 <= x120 <= 1
 0 <= x122 <= 1
 0 <= x124 <= 1
 0 <= x126 <= 1
 0 <= x128 <= 1
 0 <= x130 <= 1
 0 <= x131 <= 1
 0 <= x133 <= 1
 0 <= x135 <= 1
 0 <= x137 <= 1
 0 <= x139 <= 1
 0 <= x141 <= 1
 0 <= x143 <= 1
 0 <= x145 <= 1
 0 <= x147 <= 1
 0 <= x149 <= 1
 0 <= x150 <= 1
 0 <= x152 <= 1
 0 <= x154 <= 1
 0 <= x156 <= 1
 0 <= x158 <= 1
 0 <= x160 <= 1
 0 <= x162 <= 1
 0 <= x164 <= 1
 0 <= x166 <= 1
 0 <= x167 <= 1
 0 <= x169 <= 1
 0 <= x171 <= 1
 0 <= x173 <= 1
 0 <= x175 <= 1
 0 <= x177 <= 1
 0 <= x179 <= 1
 0 <= x181 <= 1
 0 <= x183 <= 1
 0 <= x185 <= 1
 0 <= x186 <= 1
 0 <= x188 <= 1
 0 <= x190 <= 1
 0 <= x192 <= 1
 0 <= x194 <= 1
 0 <= x196 <= 1
 0 <= x198 <= 1
 0 <= x200 <= 1
 0 <= x202 <= 1
 0 <= x204 <= 1
 0 <= x205 <= 1
 0 <= x207 <= 1
 0 <= x209 <= 1
 0 <= x211 <= 1
 0 <= x213 <= 1
 0 <= x215 <= 1
 0 <= x217 <= 1
 0 <= x218 <= 1
 0 <= x220 <= 1
 0 <= x222 <= 1
 0 <= x224 <= 1
 0 <= x226 <= 1
 0 <= x228 <= 1
 0 <= x230 <= 1
 0 <= x232 <= 1
 0 <= x234 <= 1
 0 <= x236 <= 1
 0 <= x237 <= 1
 0 <= x239 <= 1
 0 <= x241 <= 1
 0 <= x243 <= 1
 0 <= x245 <= 1
 0 <= x247 <= 1
 0 <= x249 <= 1
 0 <= x251 <= 1
 0 <= x253 <= 1
 0 <= x255 <= 1
 0 <= x256 <= 1
 0 <= x258 <= 1
 0 <= x260 <= 1
 0 <= x262 <= 1
 0 <= x264 <= 1
 0 <= x266 <= 1
 0 <= x268 <= 1
 0 <= x270 <= 1
 0 <= x272 <= 1
 0 <= x274 <= 1
 0 <= x275 <= 1
 0 <= x277 <= 1
 0 <= x279 <= 1
 0 <= x281 <= 1
 0 <= x283 <= 1
 0 <= x285 <= 1
 0 <= x287 <= 1
 0 <= x289 <= 1
 0 <= x291 <= 1
 0 <= x293 <= 1
 0 <= x294 <= 1
 0 <= x296 <= 1
 0 <= x298 <= 1
 0 <= x300 <= 1
 0 <= x302 <= 1
 0 <= x304 <= 1
 0 <= x306 <= 1
 0 <= x308 <= 1
 0 <= x310 <= 1
 0 <= x312 <= 1
 0 <= x313 <= 1
 0 <= x315 <= 1
 0 <= x317 <= 1
 0 <= x319 <= 1
 0 <= x321 <= 1
 0 <= x323 <= 1
 0 <= x325 <= 1
 0 <= x327 <= 1
 0 <= x329 <= 1
 0 <= x331 <= 1
 0 <= x332 <= 1
 0 <= x334 <= 1
 0 <= x336 <= 1
 0 <= x338 <= 1
 0 <= x340 <= 1
 0 <= x342 <= 1
 0 <= x344 <= 1
 0 <= x346 <= 1
 0 <= x348 <= 1
 0 <= x350 <= 1
 0 <= x351 <= 1
 0 <= x353 <= 1
 0 <= x355 <= 1
 0 <= x357 <= 1
 0 <= x359 <= 1
 0 <= x361 <= 1
 0 <= x363 <= 1
 0 <= x365 <= 1
 0 <= x367 <= 1
 0 <= x369 <= 1
 0 <= x370 <= 1
 0 <= x372 <= 1
 0 <= x374 <= 1
 0 <= x376 <= 1
 0 <= x378 <= 1
 0 <= x380 <= 1
 0 <= x382 <= 1
 0 <= x384 <= 1
 0 <= x386 <= 1
 0 <= x388 <= 1
 0 <= x389 <= 1
 0 <= x391 <= 1
 0 <= x393 <= 1
 0 <= x395 <= 1
 0 <= x397 <= 1
 0 <= x399 <= 1
 0 <= x401 <= 1
 0 <= x403 <= 1
 0 <= x405 <= 1
 0 <= x407 <= 1
 0 <= x408 <= 1
 0 <= x410 <= 1
 0 <= x412 <= 1
 0 <= x414 <= 1
 0 <= x416 <= 1
 0 <= x418 <= 1
 0 <= x420 <= 1
 0 <= x422 <= 1
 0 <= x424 <= 1
 0 <= x426 <= 1
 0 <= x427 <= 1
 0 <= x429 <= 1
 0 <= x431 <= 1
 0 <= x433 <= 1
 0 <= x435 <= 1
 0 <= x437 <= 1
 0 <= x439 <= 1
 0 <= x441 <= 1
 0 <= x443 <= 1
 0 <= x445 <= 1
 0 <= x446 <= 1
 0 <= x448 <= 1
 0 <= x450 <= 1
 0 <= x452 <= 1
 0 <= x454 <= 1
 0 <= x456 <= 1
 0 <= x458 <= 1
 0 <= x460 <= 1
 0 <= x462 <= 1
 0 <= x464 <= 1
 0 <= x465 <= 1
 0 <= x467 <= 1
 0 <= x469 <= 1
 0 <= x471 <= 1
 0 <= x473 <= 1
 0 <= x475 <= 1
 0 <= x477 <= 1
 0 <= x479 <= 1
 0 <= x481 <= 1
 0 <= x483 <= 1
 0 <= x484 <= 1
 0 <= x486 <= 1
 0 <= x488 <= 1
 0 <= x490 <= 1
 0 <= x492 <= 1
 0 <= x494 <= 1
 0 <= x496 <= 1
 0 <= x498 <= 1
 0 <= x500 <= 1
 0 <= x502 <= 1
 0 <= x503 <= 1
 0 <= x505 <= 1
 0 <= x507 <= 1
 0 <= x509 <= 1
 0 <= x511 <= 1
 0 <= x513 <= 1
 0 <= x515 <= 1
 0 <= x517 <= 1
 0 <= x519 <= 1
 0 <= x521 <= 1
 0 <= x522 <= 1
 0 <= x524 <= 1
 0 <= x526 <= 1
 0 <= x528 <= 1
 0 <= x530 <= 1
 0 <= x532 <= 1
 0 <= x533 <= 1
 0 <= x535 <= 1
 0 <= x537 <= 1
 0 <= x539 <= 1
 0 <= x541 <= 1
 0 <= x542 <= 1
 0 <= x544 <= 1
 0 <= x546 <= 1
 0 <= x548 <= 1
 0 <= x550 <= 1
 0 <= x551 <= 1
 0 <= x553 <= 1
 0 <= x555 <= 1
 0 <= x557 <= 1
 0 <= x558 <= 1
 0 <= x560 <= 1
 0 <= x562 <= 1
 0 <= x564 <= 1
 0 <= x566 <= 1
 0 <= x568 <= 1
 0 <= x570 <= 1
 0 <= x571 <= 1
 0 <= x572 <= 1
 0 <= x574 <= 1
 0 <= x576 <= 1
 0 <= x577 <= 1
 0 <= x579 <= 1
 0 <= x581 <= 1
 0 <= x583 <= 1
 0 <= x585 <= 1
 0 <= x587 <= 1
 0 <= x588 <= 1
 0 <= x590 <= 1
 0 <= x591 <= 1
Generals
 x1  x1  x3  x5  x7  x9  x11  x13  x15  x17  x19  x21  x23  x25  x27  x29  x31 
 x33  x35  x37  x39  x41  x43  x45  x47  x49  x51  x53  x55  x57  x59  x61 
 x63  x65  x67  x69  x71  x73  x75  x77  x79  x81  x83  x85  x87  x89  x91 
 x93  x95  x97  x99  x101  x103  x105  x107  x109  x111  x112  x114  x116 
 x118  x120  x122  x124  x126  x128  x130  x131  x133  x135  x137  x139  x141 
 x143  x145  x147  x149  x150  x152  x154  x156  x158  x160  x162  x164  x166 
 x167  x169  x171  x173  x175  x177  x179  x181  x183  x185  x186  x188  x190 
 x192  x194  x196  x198  x200  x202  x204  x205  x207  x209  x211  x213  x215 
 x217  x218  x220  x222  x224  x226  x228  x230  x232  x234  x236  x237  x239 
 x241  x243  x245  x247  x249  x251  x253  x255  x256  x258  x260  x262  x264 
 x266  x268  x270  x272  x274  x275  x277  x279  x281  x283  x285  x287  x289 
 x291  x293  x294  x296  x298  x300  x302  x304  x306  x308  x310  x312  x313 
 x315  x317  x319  x321  x323  x325  x327  x329  x331  x332  x334  x336  x338 
 x340  x342  x344  x346  x348  x350  x351  x353  x355  x357  x359  x361  x363 
 x365  x367  x369  x370  x372  x374  x376  x378  x380  x382  x384  x386  x388 
 x389  x391  x393  x395  x397  x399  x401  x403  x405  x407  x408  x410  x412 
 x414  x416  x418  x420  x422  x424  x426  x427  x429  x431  x433  x435  x437 
 x439  x441  x443  x445  x446  x448  x450  x452  x454  x456  x458  x460  x462 
 x464  x465  x467  x469  x471  x473  x475  x477  x479  x481  x483  x484  x486 
 x488  x490  x492  x494  x496  x498  x500  x502  x503  x505  x507  x509  x511 
 x513  x515  x517  x519  x521  x522  x524  x526  x528  x530  x532  x533  x535 
 x537  x539  x541  x542  x544  x546  x548  x550  x551  x553  x555  x557  x558 
 x560  x562  x564  x566  x568  x570  x571  x572  x574  x576  x577  x579  x581 
 x583  x585  x587  x588  x590  x591 
End
